N = 60;
W = 100;
H = 100;
ItemWidth = [ 69, 55, 27, 11, 11, 23, 57, 27, 12, 14, 8, 90, 67, 94, 96, 95, 90, 8, 79, 75, 48, 74, 35, 92, 76, 87, 74, 97, 73, 72, 95, 66, 68, 75, 66, 94, 86, 92, 69, 69, 73, 68, 86, 82, 85, 68, 68, 96, 99, 70, 73, 96, 86, 84, 68, 77, 96, 10, 91, 97 ];
ItemHeight = [ 100, 98, 93, 91, 80, 79, 79, 73, 73, 71, 70, 57, 48, 47, 47, 46, 45, 44, 41, 41, 40, 40, 39, 39, 39, 38, 35, 34, 34, 33, 33, 31, 31, 30, 28, 25, 25, 24, 24, 22, 19, 18, 18, 15, 14, 14, 13, 13, 12, 10, 10, 9, 9, 9, 8, 6, 5, 5, 2, 1 ];
